asp/input/in_60_30_9_3.lp
#const n = 60.
#const k = 30.
#const h = 9.
tile(1,28,12).
tile(2,8,29).
tile(3,26,29).
tile(4,5,5).
tile(5,1,29).
tile(6,1,17).
tile(7,15,16).
tile(8,30,26).
tile(9,21,9).
tile(10,25,2).
tile(11,22,29).
tile(12,4,13).
tile(13,19,10).
tile(14,20,30).
tile(15,2,1).
tile(16,30,22).
tile(17,11,29).
tile(18,2,20).
tile(19,29,30).
tile(20,29,21).
tile(21,20,5).
tile(22,30,1).
tile(23,8,20).
tile(24,30,17).
tile(25,8,17).
tile(26,22,7).
tile(27,1,24).
tile(28,17,18).
tile(29,12,1).
tile(30,18,21).
tile(31,5,6).
tile(32,27,5).
tile(33,25,10).
tile(34,1,18).
tile(35,30,23).
tile(36,11,15).
tile(37,15,23).
tile(38,14,11).
tile(39,18,9).
tile(40,12,26).
tile(41,19,14).
tile(42,10,10).
tile(43,24,28).
tile(44,1,25).
tile(45,9,14).
tile(46,11,27).
tile(47,2,28).
tile(48,30,12).
tile(49,22,30).
tile(50,30,29).
tile(51,1,4).
tile(52,20,25).
tile(53,15,19).
tile(54,20,25).
tile(55,1,11).
tile(56,25,13).
tile(57,22,29).
tile(58,10,13).
tile(59,16,23).
tile(60,30,12).
