minizinc/input/in_60_30_9_3.dzn
n = 60;
k = 30;
h = 9;
tiles = array2d(1..n, 1..2,
[ 28,12
, 8,29
, 26,29
, 5,5
, 1,29
, 1,17
, 15,16
, 30,26
, 21,9
, 25,2
, 22,29
, 4,13
, 19,10
, 20,30
, 2,1
, 30,22
, 11,29
, 2,20
, 29,30
, 29,21
, 20,5
, 30,1
, 8,20
, 30,17
, 8,17
, 22,7
, 1,24
, 17,18
, 12,1
, 18,21
, 5,6
, 27,5
, 25,10
, 1,18
, 30,23
, 11,15
, 15,23
, 14,11
, 18,9
, 12,26
, 19,14
, 10,10
, 24,28
, 1,25
, 9,14
, 11,27
, 2,28
, 30,12
, 22,30
, 30,29
, 1,4
, 20,25
, 15,19
, 20,25
, 1,11
, 25,13
, 22,29
, 10,13
, 16,23
, 30,12
]);